DIMENSION: 32
EDGE_WEIGHT_TYPE: EXPLICIT
EDGE_WEIGHT_FORMAT: FULL_MATRIX
EDGE_WEIGHT_SECTION:
32767 32767 32767 56 58 37 25 55 11 32767 32767 32767 94 32767 32767 32767 32767 32767 24 32767 32767 32767 43 42 32767 14 32767 3 32767 76 32767 86 
32767 32767 32767 28 32767 15 32767 32767 32767 48 13 32767 3 85 64 32767 97 32767 32767 32767 32767 32767 32767 32767 35 3 94 32767 32767 77 32767 61 
32767 32767 32767 32767 62 59 12 32767 32767 70 36 12 32767 32767 1 96 32767 89 32767 32767 32767 32767 32767 32767 32767 32767 32767 67 71 32767 94 32767 
56 28 32767 32767 28 32767 39 32767 56 32767 51 99 38 50 32767 32767 32767 79 32767 32767 32767 32767 74 32767 23 63 45 24 32767 32767 32767 32767 
58 32767 62 28 32767 56 2 32767 3 32767 32 32767 3 32767 78 32767 78 82 32767 32767 32767 96 32767 32767 32767 32767 32767 58 32767 32767 32767 32767 
37 15 59 32767 56 32767 36 32767 16 7 32767 85 67 41 32767 32767 92 32767 7 32767 61 100 32767 32767 32767 19 32767 5 23 32767 39 32767 
25 32767 12 39 2 36 32767 2 46 32767 83 32767 88 5 32767 17 89 32767 32767 32767 32767 32767 32767 15 32767 32767 32767 79 32767 80 32767 32767 
55 32767 32767 32767 32767 32767 2 32767 49 32767 99 32767 32767 22 32767 68 32767 32767 32767 64 32767 32767 34 70 32767 100 13 32767 23 62 32767 32767 
11 32767 32767 56 3 16 46 49 32767 43 14 56 32767 32767 32767 32767 32767 32767 32767 32767 38 32767 59 89 98 89 32767 32767 20 45 85 32767 
32767 48 70 32767 32767 7 32767 32767 43 32767 32767 32767 32767 35 32767 32767 32767 28 53 32767 32767 32767 32767 32767 32767 69 32767 27 13 50 32767 32767 
32767 13 36 51 32 32767 83 99 14 32767 32767 32767 73 76 32767 32767 32767 32767 61 32767 32767 32767 32 42 85 70 94 32767 32767 47 68 32767 
32767 32767 12 99 32767 85 32767 32767 56 32767 32767 32767 32767 99 9 23 25 32767 27 32767 32767 96 32767 98 32767 32767 32767 32767 15 11 32767 32767 
94 3 32767 38 3 67 88 32767 32767 32767 73 32767 32767 32767 96 32767 98 88 57 46 32767 11 32767 32767 29 32767 28 74 32767 40 36 29 
32767 85 32767 50 32767 41 5 22 32767 35 76 99 32767 32767 40 28 32767 32767 32767 44 32767 90 32767 32767 75 9 32767 32767 32767 32767 32767 32767 
32767 64 1 32767 78 32767 32767 32767 32767 32767 32767 9 96 40 32767 16 31 32767 11 32767 32767 43 58 63 32767 90 8 32767 32767 6 88 21 
32767 32767 96 32767 32767 32767 17 68 32767 32767 32767 23 32767 28 16 32767 32767 13 27 32767 32767 32767 44 32767 32767 32767 32767 39 32767 32767 32767 57 
32767 97 32767 32767 78 92 89 32767 32767 32767 32767 25 98 32767 31 32767 32767 40 32767 32767 71 32767 32767 32767 32767 56 85 32767 70 32767 13 3 
32767 32767 89 79 82 32767 32767 32767 32767 28 32767 32767 88 32767 32767 13 40 32767 32767 32767 32767 32767 32767 32767 32767 32767 32767 44 32767 32767 68 32767 
24 32767 32767 32767 32767 7 32767 32767 32767 53 61 27 57 32767 11 27 32767 32767 32767 32767 1 32767 26 48 32767 9 29 32767 32767 9 32767 33 
32767 32767 32767 32767 32767 32767 32767 64 32767 32767 32767 32767 46 44 32767 32767 32767 32767 32767 32767 86 32767 51 32767 32767 53 38 90 32767 56 32767 55 
32767 32767 32767 32767 32767 61 32767 32767 38 32767 32767 32767 32767 32767 32767 32767 71 32767 1 86 32767 32767 32767 32767 32767 32767 32767 32767 32767 32767 32767 21 
32767 32767 32767 32767 96 100 32767 32767 32767 32767 32767 96 11 90 43 32767 32767 32767 32767 32767 32767 32767 32767 61 32767 32767 32767 32767 32767 32767 95 32767 
43 32767 32767 74 32767 32767 32767 34 59 32767 32 32767 32767 32767 58 44 32767 32767 26 51 32767 32767 32767 36 32767 32767 32767 69 29 80 32767 32767 
42 32767 32767 32767 32767 32767 15 70 89 32767 42 98 32767 32767 63 32767 32767 32767 48 32767 32767 61 36 32767 81 32767 32767 32767 35 32767 32767 32767 
32767 35 32767 23 32767 32767 32767 32767 98 32767 85 32767 29 75 32767 32767 32767 32767 32767 32767 32767 32767 32767 81 32767 30 20 16 63 32767 91 32767 
14 3 32767 63 32767 19 32767 100 89 69 70 32767 32767 9 90 32767 56 32767 9 53 32767 32767 32767 32767 30 32767 32767 32767 71 39 32767 32767 
32767 94 32767 45 32767 32767 32767 13 32767 32767 94 32767 28 32767 8 32767 85 32767 29 38 32767 32767 32767 32767 20 32767 32767 49 2 32767 32767 32767 
3 32767 67 24 58 5 79 32767 32767 27 32767 32767 74 32767 32767 39 32767 44 32767 90 32767 32767 69 32767 16 32767 49 32767 32767 60 32767 41 
32767 32767 71 32767 32767 23 32767 23 20 13 32767 15 32767 32767 32767 32767 70 32767 32767 32767 32767 32767 29 35 63 71 2 32767 32767 84 32767 32767 
76 77 32767 32767 32767 32767 80 62 45 50 47 11 40 32767 6 32767 32767 32767 9 56 32767 32767 80 32767 32767 39 32767 60 84 32767 32 1 
32767 32767 94 32767 32767 39 32767 32767 85 32767 68 32767 36 32767 88 32767 13 68 32767 32767 32767 95 32767 32767 91 32767 32767 32767 32767 32 32767 32767 
86 61 32767 32767 32767 32767 32767 32767 32767 32767 32767 32767 29 32767 21 57 3 32767 33 55 21 32767 32767 32767 32767 32767 32767 41 32767 1 32767 32767 
EOF